StringID   Type       x          y          demand     ReadyTime  DueDate    ServiceTime wp1 wp2 wp3 wp4 wp5 wp6 wp7 wp8 wp9 wp10 wp11 wp12 wp13 wp14 wp15 wp16 wp17 wp18 wp19 wp20 wp21
D0         d          40.0       50.0       0.0        0.0        1236.0     0.0        
S0         f          40.0       50.0       0.0        0.0        1236.0     0.0         0.5 0.5 0.7 0.7 0.7 0.7 0.7 0.5 0.5 0.7  1    1    1    0.7  0.7  0.5  0.5  0.5  0.7  0.7  0.5   
S3         f          77.0       52.0       0.0        0.0        1236.0     0.0         0.5 0.5 0.7 0.7 0.7 0.7 0.7 1   1   1    1    1    1    0.7  0.7  0.7  0.7  0.7  0.7  0.7  0.5
S13        f          57.0       82.0       0.0        0.0        1236.0     0.0         0.7 0.7 0.5 0.5 0.5 0.7 0.7 0.7 0.7 1    1    1    1    0.7  0.7  0.7  0.7  0.5  0.5  0.5  0.5
S18        f          48.0       8.0        0.0        0.0        1236.0     0.0         1   1   1   0.7 0.7 0.7 0.7 0.5 0.5 0.5  0.7  1    1    0.7  0.7  0.7  0.7  0.7  0.7  0.7  0.5 
C72        c          58.0       75.0       20.0       30.0       84.0       90.0       
C34        c          8.0        45.0       20.0       109.0      170.0      90.0       
C80        c          55.0       25.0       10.0       727.0      782.0      90.0       
C3         c          42.0       66.0       30.0       30.0       92.0       90.0       
C88        c          65.0       60.0       30.0       196.0      239.0      90.0       
C96        c          60.0       80.0       20.0       647.0      726.0      90.0       
C42        c          33.0       32.0       40.0       186.0      257.0      90.0       
C22        c          28.0       52.0       10.0       261.0      316.0      90.0       
C57        c          40.0       15.0       10.0       737.0      802.0      90.0       
C48        c          28.0       30.0       10.0       95.0       156.0      90.0       

F Vehicle fuel tank capacity /12/
Q Vehicle load capacity /200.0/
r fuel consumption rate /0.155/
g inverse refueling rate /0.5/
v average Velocity /1.0/
